<instance format="XCSP3" type="COP">
  <variables>
    <array id="r" note="r[i] is the model used for the ith rack" size="[5]"> 0..2 </array>
    <array id="c" note="c[i][j] is the number of cards of type j put in the ith rack" size="[5][4]">
      <domain for="c[][0]"> 0..10 </domain>
      <domain for="c[][1]"> 0..4 </domain>
      <domain for="c[][2]"> 0..2 </domain>
      <domain for="c[][3]"> 0 1 </domain>
    </array>
    <array id="rpw" note="rpw[i] is the power of the ith rack" size="[5]"> 0 150 200 </array>
    <array id="rcn" note="rcn[i] is the number of connectors of the ith rack" size="[5]"> 0 8 16 </array>
    <array id="rpr" note="rpr[i] is the price of the ith rack" size="[5]"> 0 150 200 </array>
  </variables>
  <constraints>
    <group note="linking the ith rack with its power">
      <extension>
        <list> %0 %1 </list>
        <supports> (0,0)(1,150)(2,200) </supports>
      </extension>
      <args> r[0] rpw[0] </args>
      <args> r[1] rpw[1] </args>
      <args> r[2] rpw[2] </args>
      <args> r[3] rpw[3] </args>
      <args> r[4] rpw[4] </args>
    </group>
    <group note="linking the ith rack with its number of connectors">
      <extension>
        <list> %0 %1 </list>
        <supports> (0,0)(1,8)(2,16) </supports>
      </extension>
      <args> r[0] rcn[0] </args>
      <args> r[1] rcn[1] </args>
      <args> r[2] rcn[2] </args>
      <args> r[3] rcn[3] </args>
      <args> r[4] rcn[4] </args>
    </group>
    <group note="linking the ith rack with its price">
      <extension>
        <list> %0 %1 </list>
        <supports> (0,0)(1,150)(2,200) </supports>
      </extension>
      <args> r[0] rpr[0] </args>
      <args> r[1] rpr[1] </args>
      <args> r[2] rpr[2] </args>
      <args> r[3] rpr[3] </args>
      <args> r[4] rpr[4] </args>
    </group>
    <block note="connector-capacity constraints">
      <sum>
        <list> c[0][] </list>
        <condition> (le,rcn[0]) </condition>
      </sum>
      <sum>
        <list> c[1][] </list>
        <condition> (le,rcn[1]) </condition>
      </sum>
      <sum>
        <list> c[2][] </list>
        <condition> (le,rcn[2]) </condition>
      </sum>
      <sum>
        <list> c[3][] </list>
        <condition> (le,rcn[3]) </condition>
      </sum>
      <sum>
        <list> c[4][] </list>
        <condition> (le,rcn[4]) </condition>
      </sum>
    </block>
    <block note="power-capacity constraints">
      <sum>
        <list> c[0][] </list>
        <coeffs> 20 40 50 75 </coeffs>
        <condition> (le,rpw[0]) </condition>
      </sum>
      <sum>
        <list> c[1][] </list>
        <coeffs> 20 40 50 75 </coeffs>
        <condition> (le,rpw[1]) </condition>
      </sum>
      <sum>
        <list> c[2][] </list>
        <coeffs> 20 40 50 75 </coeffs>
        <condition> (le,rpw[2]) </condition>
      </sum>
      <sum>
        <list> c[3][] </list>
        <coeffs> 20 40 50 75 </coeffs>
        <condition> (le,rpw[3]) </condition>
      </sum>
      <sum>
        <list> c[4][] </list>
        <coeffs> 20 40 50 75 </coeffs>
        <condition> (le,rpw[4]) </condition>
      </sum>
    </block>
    <block note="demand constraints">
      <sum>
        <list> c[][0] </list>
        <condition> (eq,10) </condition>
      </sum>
      <sum>
        <list> c[][1] </list>
        <condition> (eq,4) </condition>
      </sum>
      <sum>
        <list> c[][2] </list>
        <condition> (eq,2) </condition>
      </sum>
      <sum>
        <list> c[][3] </list>
        <condition> (eq,1) </condition>
      </sum>
    </block>
  </constraints>
  <objectives>
    <minimize type="sum"> rpr[] </minimize>
  </objectives>
</instance>
